\ENCODING=ISO-8859-1
\Problem name: IloCplex

Maximize
 obj: 1706 vnp1 - 158 (π,ρ)0↑e2 - 158 (π,ρ)1↑e2
      - 80 (π,ρ)2↑e3 - 140 (π,ρ)3↑e3
      - 227 (π,ρ)4↑e3 - 237 (π,ρ)5↑e3
      - 92 (π,ρ)6↑e4 - 96 (π,ρ)7↑e4
      - 106 (π,ρ)8↑e4 - 72 (π,ρ)9↑e4
      - 72 (π,ρ)10↑e4 - 118 (π,ρ)11↑e4
      - 128 (π,ρ)12↑e4 - 270 (π,ρ)13↑e5
      - 300 (π,ρ)14↑e5 - 310 (π,ρ)15↑e5
      - 312 (π,ρ)16↑e5 + 1144 vnp2 - 4 (π,ρ)17↑e6
      - 10 (π,ρ)18↑e7 - 78 (π,ρ)19↑e8
      - 28 (π,ρ)20↑e9 - 28 (π,ρ)21↑e9
      - 28 (π,ρ)22↑e9 - 53 (π,ρ)23↑e9
      - 53 (π,ρ)24↑e9 - 41 (π,ρ)25↑e9
      - 41 (π,ρ)26↑e9 - 41 (π,ρ)27↑e9
      - 41 (π,ρ)28↑e9 + 1492 vnp4 - 126 (π,ρ)29↑e14
      - 111 (π,ρ)30↑e14 - 171 (π,ρ)31↑e14 + 2179 vnp5
      - 41 (π,ρ)32↑e17 - 41 (π,ρ)33↑e17
      - 34 (π,ρ)34↑e17 - 28 (π,ρ)35↑e17
      - 28 (π,ρ)36↑e17 - 285 (π,ρ)37↑e19
      - 285 (π,ρ)38↑e19 - 405 (π,ρ)39↑e19
      - 420 (π,ρ)40↑e19 - 27 (π,ρ)41↑e21 + 1591 vnp6
      - 288 (π,ρ)42↑e22 - 296 (π,ρ)43↑e22
      - 355 (π,ρ)44↑e22 - 373 (π,ρ)45↑e22
      - 379 (π,ρ)46↑e22 - 385 (π,ρ)47↑e22
      - 223 (π,ρ)48↑e23 - 231 (π,ρ)49↑e23
      - 279 (π,ρ)50↑e23 - 289 (π,ρ)51↑e23
      - 294 (π,ρ)52↑e23 - 297 (π,ρ)53↑e23
      - 130 (π,ρ)54↑e24 - 141 (π,ρ)55↑e25
      - 148 (π,ρ)56↑e25 - 276 (π,ρ)57↑e25
      - 289 (π,ρ)58↑e25 - 215 (π,ρ)59↑e25
Subject To
 _EmbdConstr_vnp1e1#0:   vnp1  = 0
 _EmbdConstr_vnp1e2#1:   vnp1 - (π,ρ)0↑e2 - (π,ρ)1↑e2
                          = 0
 _EmbdConstr_vnp1e3#2:   vnp1 - (π,ρ)2↑e3 - (π,ρ)3↑e3
                         - (π,ρ)4↑e3 - (π,ρ)5↑e3  = 0
 _EmbdConstr_vnp1e4#3:   vnp1 - (π,ρ)6↑e4 - (π,ρ)7↑e4
                         - (π,ρ)8↑e4 - (π,ρ)9↑e4
                         - (π,ρ)10↑e4 - (π,ρ)11↑e4
                         - (π,ρ)12↑e4  = 0
 _EmbdConstr_vnp1e5#4:   vnp1 - (π,ρ)13↑e5 - (π,ρ)14↑e5
                         - (π,ρ)15↑e5 - (π,ρ)16↑e5  = 0
 _EmbdConstr_vnp2e6#5:   vnp2 - (π,ρ)17↑e6  = 0
 _EmbdConstr_vnp2e7#6:   vnp2 - (π,ρ)18↑e7  = 0
 _EmbdConstr_vnp2e8#7:   vnp2 - (π,ρ)19↑e8  = 0
 _EmbdConstr_vnp2e9#8:   vnp2 - (π,ρ)20↑e9 - (π,ρ)21↑e9
                         - (π,ρ)22↑e9 - (π,ρ)23↑e9
                         - (π,ρ)24↑e9 - (π,ρ)25↑e9
                         - (π,ρ)26↑e9 - (π,ρ)27↑e9
                         - (π,ρ)28↑e9  = 0
 _EmbdConstr_vnp4e13#9:  vnp4  = 0
 _EmbdConstr_vnp4e14#10: vnp4 - (π,ρ)29↑e14 - (π,ρ)30↑e14
                         - (π,ρ)31↑e14  = 0
 _EmbdConstr_vnp4e15#11: vnp4  = 0
 _EmbdConstr_vnp4e16#12: vnp4  = 0
 _EmbdConstr_vnp5e17#13: vnp5 - (π,ρ)32↑e17 - (π,ρ)33↑e17
                         - (π,ρ)34↑e17 - (π,ρ)35↑e17
                         - (π,ρ)36↑e17  = 0
 _EmbdConstr_vnp5e18#14: vnp5  = 0
 _EmbdConstr_vnp5e19#15: vnp5 - (π,ρ)37↑e19 - (π,ρ)38↑e19
                         - (π,ρ)39↑e19 - (π,ρ)40↑e19  = 0
 _EmbdConstr_vnp5e20#16: vnp5  = 0
 _EmbdConstr_vnp5e21#17: vnp5 - (π,ρ)41↑e21  = 0
 _EmbdConstr_vnp6e22#18: vnp6 - (π,ρ)42↑e22 - (π,ρ)43↑e22
                         - (π,ρ)44↑e22 - (π,ρ)45↑e22
                         - (π,ρ)46↑e22 - (π,ρ)47↑e22  = 0
 _EmbdConstr_vnp6e23#19: vnp6 - (π,ρ)48↑e23 - (π,ρ)49↑e23
                         - (π,ρ)50↑e23 - (π,ρ)51↑e23
                         - (π,ρ)52↑e23 - (π,ρ)53↑e23  = 0
 _EmbdConstr_vnp6e24#20: vnp6 - (π,ρ)54↑e24  = 0
 _EmbdConstr_vnp6e25#21: vnp6 - (π,ρ)55↑e25 - (π,ρ)56↑e25
                         - (π,ρ)57↑e25 - (π,ρ)58↑e25
                         - (π,ρ)59↑e25  = 0
 BwCapConstr_slink1#22:  3 (π,ρ)19↑e8 + (π,ρ)20↑e9
                         + (π,ρ)21↑e9 + (π,ρ)22↑e9
                         + (π,ρ)25↑e9 + (π,ρ)26↑e9
                         + (π,ρ)27↑e9 + (π,ρ)28↑e9
                         + 5 (π,ρ)42↑e22 + 5 (π,ρ)43↑e22
                         + 5 (π,ρ)44↑e22 + 5 (π,ρ)45↑e22
                         + 5 (π,ρ)46↑e22 + 5 (π,ρ)47↑e22
                         + 5 (π,ρ)48↑e23 + 5 (π,ρ)49↑e23
                         + 5 (π,ρ)50↑e23 + 5 (π,ρ)51↑e23
                         + 5 (π,ρ)52↑e23 + 5 (π,ρ)53↑e23
                         <= 20
 BwCapConstr_slink2#23:  (π,ρ)23↑e9 + (π,ρ)24↑e9
                         + 5 (π,ρ)42↑e22 + 5 (π,ρ)43↑e22
                         + 5 (π,ρ)44↑e22 + 5 (π,ρ)45↑e22
                         + 5 (π,ρ)46↑e22 + 5 (π,ρ)47↑e22
                         + 5 (π,ρ)48↑e23 + 5 (π,ρ)49↑e23
                         + 5 (π,ρ)50↑e23 + 5 (π,ρ)51↑e23
                         + 5 (π,ρ)52↑e23 + 5 (π,ρ)53↑e23
                         + 5 (π,ρ)54↑e24 <= 20
 BwCapConstr_slink3#24:  2 (π,ρ)11↑e4 + 2 (π,ρ)12↑e4
                         + 5 (π,ρ)13↑e5 + 5 (π,ρ)14↑e5
                         + 5 (π,ρ)15↑e5 + 5 (π,ρ)16↑e5
                         + 3 (π,ρ)29↑e14 <= 9
 BwCapConstr_slink4#25:  2 (π,ρ)0↑e2 + 2 (π,ρ)1↑e2
                         + 2 (π,ρ)6↑e4 + 2 (π,ρ)7↑e4
                         + 2 (π,ρ)8↑e4 + 2 (π,ρ)11↑e4
                         + 2 (π,ρ)12↑e4 + 5 (π,ρ)13↑e5
                         + 5 (π,ρ)14↑e5 + 5 (π,ρ)15↑e5
                         + 5 (π,ρ)16↑e5 + 3 (π,ρ)30↑e14
                         + 3 (π,ρ)31↑e14 + 5 (π,ρ)39↑e19
                         + 5 (π,ρ)40↑e19 <= 20
 BwCapConstr_slink5#26:  3 (π,ρ)19↑e8 + 5 (π,ρ)54↑e24
                         + 5 (π,ρ)56↑e25 + 2 (π,ρ)58↑e25
                         <= 14
 BwCapConstr_slink6#27:  5 (π,ρ)42↑e22 + 3 (π,ρ)44↑e22
                         + 5 (π,ρ)50↑e23 + 5 (π,ρ)51↑e23
                         + 5 (π,ρ)52↑e23 + 5 (π,ρ)53↑e23
                         + (π,ρ)58↑e25 <= 8
 BwCapConstr_slink7#28:  (π,ρ)23↑e9 + (π,ρ)24↑e9
                         + 5 (π,ρ)55↑e25 + 2 (π,ρ)57↑e25
                         + 5 (π,ρ)59↑e25 <= 11
 BwCapConstr_slink8#29:  2 (π,ρ)11↑e4 + 2 (π,ρ)12↑e4
                         + 5 (π,ρ)13↑e5 + 5 (π,ρ)14↑e5
                         + 5 (π,ρ)15↑e5 + 5 (π,ρ)16↑e5
                         + 3 (π,ρ)29↑e14 + 5 (π,ρ)42↑e22
                         + 5 (π,ρ)43↑e22 + 5 (π,ρ)44↑e22
                         + 5 (π,ρ)45↑e22 + 5 (π,ρ)46↑e22
                         + 5 (π,ρ)47↑e22 + 5 (π,ρ)48↑e23
                         + 5 (π,ρ)49↑e23 + 5 (π,ρ)55↑e25
                         + 5 (π,ρ)56↑e25 + 5 (π,ρ)57↑e25
                         + 5 (π,ρ)58↑e25 + (π,ρ)59↑e25
                         <= 3
 BwCapConstr_slink9#30:  2 (π,ρ)42↑e22 + (π,ρ)43↑e22
                         + (π,ρ)44↑e22 + 3 (π,ρ)47↑e22
                         + (π,ρ)49↑e23 + 5 (π,ρ)50↑e23
                         + 5 (π,ρ)51↑e23 + 5 (π,ρ)52↑e23
                         + 5 (π,ρ)53↑e23 + (π,ρ)57↑e25
                         + 4 (π,ρ)58↑e25 <= 7
 BwCapConstr_slink10#31: 2 (π,ρ)0↑e2 + 2 (π,ρ)1↑e2
                         + 2 (π,ρ)7↑e4 + 2 (π,ρ)8↑e4
                         + 3 (π,ρ)30↑e14 + 5 (π,ρ)40↑e19
                         <= 15
 BwCapConstr_slink11#32: 2 (π,ρ)6↑e4 + 2 (π,ρ)9↑e4
                         + 3 (π,ρ)31↑e14 + (π,ρ)32↑e17
                         + (π,ρ)33↑e17 + (π,ρ)34↑e17
                         + (π,ρ)35↑e17 + (π,ρ)36↑e17
                         + 5 (π,ρ)39↑e19 <= 9
 BwCapConstr_slink12#33: 5 (π,ρ)59↑e25 <= 10
 BwCapConstr_slink13#34: (π,ρ)21↑e9 + (π,ρ)22↑e9
                         + (π,ρ)23↑e9 + (π,ρ)24↑e9
                         + (π,ρ)26↑e9 + (π,ρ)27↑e9
                         + 2 (π,ρ)43↑e22 <= 10
 BwCapConstr_slink14#35: 5 (π,ρ)18↑e7 + (π,ρ)20↑e9
                         + (π,ρ)21↑e9 + (π,ρ)22↑e9
                         + (π,ρ)23↑e9 + 5 (π,ρ)43↑e22
                         <= 14
 BwCapConstr_slink15#36: 2 (π,ρ)17↑e6 + (π,ρ)25↑e9
                         + (π,ρ)26↑e9 + (π,ρ)27↑e9
                         + (π,ρ)28↑e9 <= 8
 BwCapConstr_slink16#37: (π,ρ)24↑e9 + (π,ρ)25↑e9
                         + (π,ρ)26↑e9 + (π,ρ)27↑e9
                         + (π,ρ)28↑e9 <= 17
 BwCapConstr_slink17#38: 2 (π,ρ)7↑e4 + 2 (π,ρ)8↑e4
                         + 2 (π,ρ)9↑e4 + 2 (π,ρ)10↑e4
                         + 2 (π,ρ)11↑e4 + 2 (π,ρ)12↑e4
                         + 5 (π,ρ)13↑e5 + 5 (π,ρ)14↑e5
                         + 2 (π,ρ)15↑e5 + 2 (π,ρ)16↑e5
                         + 3 (π,ρ)30↑e14 + 3 (π,ρ)31↑e14
                         + 5 (π,ρ)37↑e19 + 5 (π,ρ)38↑e19
                         <= 20
 BwCapConstr_slink18#39: <= 12
 BwCapConstr_slink19#40: 5 (π,ρ)15↑e5 + 5 (π,ρ)16↑e5 <= 5
 BwCapConstr_slink20#41: (π,ρ)20↑e9 + (π,ρ)25↑e9
                         + (π,ρ)28↑e9 <= 13
 BwCapConstr_slink21#42: (π,ρ)37↑e19 + (π,ρ)38↑e19 <= 8
 BwCapConstr_slink22#43: 2 (π,ρ)0↑e2 + 2 (π,ρ)1↑e2
                         + 5 (π,ρ)4↑e3 + 5 (π,ρ)5↑e3
                         + 5 (π,ρ)15↑e5 + 5 (π,ρ)16↑e5
                         + 5 (π,ρ)57↑e25 + 5 (π,ρ)58↑e25
                         <= 4
 BwCapConstr_slink23#44: 2 (π,ρ)0↑e2 + 2 (π,ρ)1↑e2
                         + 5 (π,ρ)4↑e3 + 5 (π,ρ)5↑e3
                         + 5 (π,ρ)57↑e25 + 5 (π,ρ)58↑e25
                         + 5 (π,ρ)59↑e25 <= 18
 BwCapConstr_slink24#45: 2 (π,ρ)0↑e2 + (π,ρ)5↑e3
                         + 5 (π,ρ)14↑e5 + (π,ρ)42↑e22
                         + 5 (π,ρ)45↑e22 + 5 (π,ρ)48↑e23
                         + 5 (π,ρ)49↑e23 + 5 (π,ρ)50↑e23
                         + 5 (π,ρ)51↑e23 + 5 (π,ρ)52↑e23
                         + 5 (π,ρ)53↑e23 + 5 (π,ρ)55↑e25
                         + 5 (π,ρ)56↑e25 + 5 (π,ρ)57↑e25
                         + 5 (π,ρ)58↑e25 <= 13
 BwCapConstr_slink25#46: 3 (π,ρ)31↑e14 + 5 (π,ρ)40↑e19
                         + 5 (π,ρ)44↑e22 + 5 (π,ρ)45↑e22
                         + 5 (π,ρ)46↑e22 + 5 (π,ρ)47↑e22
                         + 2 (π,ρ)51↑e23 <= 11
 BwCapConstr_slink26#47: 2 (π,ρ)0↑e2 + 5 (π,ρ)4↑e3
                         + 5 (π,ρ)5↑e3 + 2 (π,ρ)7↑e4
                         + 2 (π,ρ)8↑e4 + 2 (π,ρ)10↑e4
                         + 2 (π,ρ)11↑e4 + 2 (π,ρ)12↑e4
                         + 5 (π,ρ)13↑e5 + 3 (π,ρ)29↑e14
                         + 3 (π,ρ)30↑e14 + 3 (π,ρ)31↑e14
                         + 5 (π,ρ)42↑e22 + 5 (π,ρ)43↑e22
                         + (π,ρ)44↑e22 + (π,ρ)47↑e22
                         + (π,ρ)48↑e23 + (π,ρ)49↑e23
                         + (π,ρ)56↑e25 <= 11
 BwCapConstr_slink27#48: 2 (π,ρ)1↑e2 + 5 (π,ρ)2↑e3
                         + (π,ρ)4↑e3 + 2 (π,ρ)5↑e3
                         + 3 (π,ρ)31↑e14 + (π,ρ)32↑e17
                         + (π,ρ)33↑e17 + 5 (π,ρ)39↑e19
                         <= 13
 BwCapConstr_slink28#49: 2 (π,ρ)1↑e2 + 5 (π,ρ)2↑e3
                         + 5 (π,ρ)3↑e3 + (π,ρ)4↑e3
                         + 5 (π,ρ)51↑e23 + 2 (π,ρ)59↑e25
                         <= 11
 BwCapConstr_slink29#50: 5 (π,ρ)14↑e5 + (π,ρ)42↑e22
                         + 5 (π,ρ)43↑e22 + 2 (π,ρ)45↑e22
                         + 5 (π,ρ)48↑e23 + 5 (π,ρ)49↑e23
                         + 5 (π,ρ)50↑e23 + 5 (π,ρ)53↑e23
                         + 5 (π,ρ)55↑e25 + 5 (π,ρ)56↑e25
                         <= 20
 BwCapConstr_slink30#51: 5 (π,ρ)52↑e23 <= 19
 BwCapConstr_slink31#52: 5 (π,ρ)15↑e5 + 5 (π,ρ)39↑e19
                         + 5 (π,ρ)40↑e19 + 2 (π,ρ)52↑e23
                         <= 15
 BwCapConstr_slink32#53: 5 (π,ρ)46↑e22 <= 8
 BwCapConstr_slink35#54: 3 (π,ρ)16↑e5 + 5 (π,ρ)37↑e19
                         + 5 (π,ρ)38↑e19 + 5 (π,ρ)39↑e19
                         + 5 (π,ρ)40↑e19 <= 11
 BwCapConstr_slink36#55: 5 (π,ρ)37↑e19 + 5 (π,ρ)38↑e19
                         + 5 (π,ρ)39↑e19 + 5 (π,ρ)40↑e19
                         + 3 (π,ρ)41↑e21 <= 14
 BwCapConstr_slink37#56: (π,ρ)32↑e17 + (π,ρ)33↑e17
                         + 5 (π,ρ)39↑e19 + 5 (π,ρ)40↑e19
                         + 2 (π,ρ)50↑e23 <= 15
 BwCapConstr_slink38#57: 5 (π,ρ)3↑e3 + 5 (π,ρ)44↑e22
                         + 5 (π,ρ)45↑e22 + 5 (π,ρ)46↑e22
                         + 5 (π,ρ)47↑e22 <= 20
 BwCapConstr_slink39#58: (π,ρ)35↑e17 + (π,ρ)36↑e17
                         + 5 (π,ρ)42↑e22 + 5 (π,ρ)43↑e22
                         <= 20
 BwCapConstr_slink40#59: (π,ρ)34↑e17 + 5 (π,ρ)37↑e19
                         + 5 (π,ρ)38↑e19 + (π,ρ)45↑e22
                         + 2 (π,ρ)46↑e22 + (π,ρ)48↑e23
                         + 5 (π,ρ)49↑e23 + 2 (π,ρ)53↑e23
                         + (π,ρ)55↑e25 + (π,ρ)56↑e25
                         <= 11
 BwCapConstr_slink41#60: 5 (π,ρ)3↑e3 + 2 (π,ρ)8↑e4
                         + 2 (π,ρ)12↑e4 + (π,ρ)35↑e17
                         + (π,ρ)36↑e17 + 5 (π,ρ)42↑e22
                         + 5 (π,ρ)43↑e22 + 5 (π,ρ)44↑e22
                         + 5 (π,ρ)45↑e22 + 5 (π,ρ)46↑e22
                         <= 20
 BwCapConstr_slink42#61: 2 (π,ρ)0↑e2 + 2 (π,ρ)1↑e2
                         + 5 (π,ρ)2↑e3 + 5 (π,ρ)3↑e3
                         + 2 (π,ρ)6↑e4 + 2 (π,ρ)7↑e4
                         + 2 (π,ρ)9↑e4 + 2 (π,ρ)10↑e4
                         + 2 (π,ρ)11↑e4 + 5 (π,ρ)13↑e5
                         + 3 (π,ρ)29↑e14 + (π,ρ)34↑e17
                         + (π,ρ)45↑e22 + (π,ρ)46↑e22
                         + (π,ρ)47↑e22 + (π,ρ)48↑e23
                         + 3 (π,ρ)53↑e23 + (π,ρ)55↑e25
                         + (π,ρ)56↑e25 <= 15
 BwCapConstr_slink43#62: 2 (π,ρ)8↑e4 + 2 (π,ρ)12↑e4
                         + 5 (π,ρ)47↑e22 <= 20
 BwCapConstr_slink44#63: 2 (π,ρ)6↑e4 + 2 (π,ρ)7↑e4
                         + 2 (π,ρ)8↑e4 + 2 (π,ρ)9↑e4
                         + 2 (π,ρ)10↑e4 + 2 (π,ρ)11↑e4
                         + 2 (π,ρ)12↑e4 + 5 (π,ρ)14↑e5
                         + 5 (π,ρ)15↑e5 + 5 (π,ρ)16↑e5
                         + 3 (π,ρ)29↑e14 + 5 (π,ρ)37↑e19
                         + 5 (π,ρ)38↑e19 <= 20
Bounds
 0 <= vnp1 <= 1
 0 <= (π,ρ)0↑e2 <= 1
 0 <= (π,ρ)1↑e2 <= 1
 0 <= (π,ρ)2↑e3 <= 1
 0 <= (π,ρ)3↑e3 <= 1
 0 <= (π,ρ)4↑e3 <= 1
 0 <= (π,ρ)5↑e3 <= 1
 0 <= (π,ρ)6↑e4 <= 1
 0 <= (π,ρ)7↑e4 <= 1
 0 <= (π,ρ)8↑e4 <= 1
 0 <= (π,ρ)9↑e4 <= 1
 0 <= (π,ρ)10↑e4 <= 1
 0 <= (π,ρ)11↑e4 <= 1
 0 <= (π,ρ)12↑e4 <= 1
 0 <= (π,ρ)13↑e5 <= 1
 0 <= (π,ρ)14↑e5 <= 1
 0 <= (π,ρ)15↑e5 <= 1
 0 <= (π,ρ)16↑e5 <= 1
 0 <= vnp2 <= 1
 0 <= (π,ρ)17↑e6 <= 1
 0 <= (π,ρ)18↑e7 <= 1
 0 <= (π,ρ)19↑e8 <= 1
 0 <= (π,ρ)20↑e9 <= 1
 0 <= (π,ρ)21↑e9 <= 1
 0 <= (π,ρ)22↑e9 <= 1
 0 <= (π,ρ)23↑e9 <= 1
 0 <= (π,ρ)24↑e9 <= 1
 0 <= (π,ρ)25↑e9 <= 1
 0 <= (π,ρ)26↑e9 <= 1
 0 <= (π,ρ)27↑e9 <= 1
 0 <= (π,ρ)28↑e9 <= 1
 0 <= vnp4 <= 1
 0 <= (π,ρ)29↑e14 <= 1
 0 <= (π,ρ)30↑e14 <= 1
 0 <= (π,ρ)31↑e14 <= 1
 0 <= vnp5 <= 1
 0 <= (π,ρ)32↑e17 <= 1
 0 <= (π,ρ)33↑e17 <= 1
 0 <= (π,ρ)34↑e17 <= 1
 0 <= (π,ρ)35↑e17 <= 1
 0 <= (π,ρ)36↑e17 <= 1
 0 <= (π,ρ)37↑e19 <= 1
 0 <= (π,ρ)38↑e19 <= 1
 0 <= (π,ρ)39↑e19 <= 1
 0 <= (π,ρ)40↑e19 <= 1
 0 <= (π,ρ)41↑e21 <= 1
 0 <= vnp6 <= 1
 0 <= (π,ρ)42↑e22 <= 1
 0 <= (π,ρ)43↑e22 <= 1
 0 <= (π,ρ)44↑e22 <= 1
 0 <= (π,ρ)45↑e22 <= 1
 0 <= (π,ρ)46↑e22 <= 1
 0 <= (π,ρ)47↑e22 <= 1
 0 <= (π,ρ)48↑e23 <= 1
 0 <= (π,ρ)49↑e23 <= 1
 0 <= (π,ρ)50↑e23 <= 1
 0 <= (π,ρ)51↑e23 <= 1
 0 <= (π,ρ)52↑e23 <= 1
 0 <= (π,ρ)53↑e23 <= 1
 0 <= (π,ρ)54↑e24 <= 1
 0 <= (π,ρ)55↑e25 <= 1
 0 <= (π,ρ)56↑e25 <= 1
 0 <= (π,ρ)57↑e25 <= 1
 0 <= (π,ρ)58↑e25 <= 1
 0 <= (π,ρ)59↑e25 <= 1
Binaries
 vnp1  (π,ρ)0↑e2  (π,ρ)1↑e2  (π,ρ)2↑e3 
 (π,ρ)3↑e3  (π,ρ)4↑e3  (π,ρ)5↑e3 
 (π,ρ)6↑e4  (π,ρ)7↑e4  (π,ρ)8↑e4 
 (π,ρ)9↑e4  (π,ρ)10↑e4  (π,ρ)11↑e4 
 (π,ρ)12↑e4  (π,ρ)13↑e5  (π,ρ)14↑e5 
 (π,ρ)15↑e5  (π,ρ)16↑e5  vnp2  (π,ρ)17↑e6 
 (π,ρ)18↑e7  (π,ρ)19↑e8  (π,ρ)20↑e9 
 (π,ρ)21↑e9  (π,ρ)22↑e9  (π,ρ)23↑e9 
 (π,ρ)24↑e9  (π,ρ)25↑e9  (π,ρ)26↑e9 
 (π,ρ)27↑e9  (π,ρ)28↑e9  vnp4  (π,ρ)29↑e14 
 (π,ρ)30↑e14  (π,ρ)31↑e14  vnp5  (π,ρ)32↑e17 
 (π,ρ)33↑e17  (π,ρ)34↑e17  (π,ρ)35↑e17 
 (π,ρ)36↑e17  (π,ρ)37↑e19  (π,ρ)38↑e19 
 (π,ρ)39↑e19  (π,ρ)40↑e19  (π,ρ)41↑e21  vnp6 
 (π,ρ)42↑e22  (π,ρ)43↑e22  (π,ρ)44↑e22 
 (π,ρ)45↑e22  (π,ρ)46↑e22  (π,ρ)47↑e22 
 (π,ρ)48↑e23  (π,ρ)49↑e23  (π,ρ)50↑e23 
 (π,ρ)51↑e23  (π,ρ)52↑e23  (π,ρ)53↑e23 
 (π,ρ)54↑e24  (π,ρ)55↑e25  (π,ρ)56↑e25 
 (π,ρ)57↑e25  (π,ρ)58↑e25  (π,ρ)59↑e25 
End
